NAME : instances/50-tsp/instance-42.tsp
COMMENT : No comment
TYPE : TSP
DIMENSION: 50
EDGE_WEIGHT_TYPE : EUC_2D
NODE_COORD_SECTION
1 464 1265 
2 997 934 
3 1378 1867 
4 1597 1504 
5 482 1303 
6 1891 671 
7 1632 1887 
8 237 1759 
9 640 701 
10 1884 256 
11 153 458 
12 1151 29 
13 676 617 
14 1590 1880 
15 1598 590 
16 697 594 
17 1265 1150 
18 1475 1707 
19 604 867 
20 284 1629 
21 816 1723 
22 397 1960 
23 868 440 
24 1705 1810 
25 1515 944 
26 114 1632 
27 82 77 
28 551 812 
29 1720 976 
30 539 362 
31 1104 1114 
32 387 742 
33 1094 325 
34 650 164 
35 734 1664 
36 817 572 
37 734 302 
38 1375 1846 
39 1006 1694 
40 255 1840 
41 363 1018 
42 197 696 
43 1267 984 
44 626 975 
45 1894 920 
46 299 1455 
47 1626 1325 
48 1158 1198 
49 906 1251 
50 499 949 
EOF
